c Generated map
c Size: 15 * 15, weights in range: 1 to 10, walls: False, with ratio 0.0
c dim 2 of 4
c
p sp 225 420
c graph contains 225 nodes and 420 arcs
c
a 1 16 4
a 16 1 4
a 1 2 6
a 2 1 6
a 2 17 8
a 17 2 8
a 2 3 10
a 3 2 10
a 3 18 10
a 18 3 10
a 3 4 5
a 4 3 5
a 4 19 9
a 19 4 9
a 4 5 1
a 5 4 1
a 5 20 2
a 20 5 2
a 5 6 8
a 6 5 8
a 6 21 7
a 21 6 7
a 6 7 8
a 7 6 8
a 7 22 7
a 22 7 7
a 7 8 8
a 8 7 8
a 8 23 10
a 23 8 10
a 8 9 8
a 9 8 8
a 9 24 6
a 24 9 6
a 9 10 8
a 10 9 8
a 10 25 1
a 25 10 1
a 10 11 3
a 11 10 3
a 11 26 6
a 26 11 6
a 11 12 6
a 12 11 6
a 12 27 4
a 27 12 4
a 12 13 9
a 13 12 9
a 13 28 9
a 28 13 9
a 13 14 1
a 14 13 1
a 14 29 3
a 29 14 3
a 14 15 8
a 15 14 8
a 15 30 2
a 30 15 2
a 16 31 8
a 31 16 8
a 16 17 2
a 17 16 2
a 17 32 9
a 32 17 9
a 17 18 7
a 18 17 7
a 18 33 7
a 33 18 7
a 18 19 7
a 19 18 7
a 19 34 5
a 34 19 5
a 19 20 1
a 20 19 1
a 20 35 7
a 35 20 7
a 20 21 5
a 21 20 5
a 21 36 7
a 36 21 7
a 21 22 5
a 22 21 5
a 22 37 8
a 37 22 8
a 22 23 9
a 23 22 9
a 23 38 8
a 38 23 8
a 23 24 2
a 24 23 2
a 24 39 6
a 39 24 6
a 24 25 7
a 25 24 7
a 25 40 8
a 40 25 8
a 25 26 4
a 26 25 4
a 26 41 4
a 41 26 4
a 26 27 3
a 27 26 3
a 27 42 6
a 42 27 6
a 27 28 10
a 28 27 10
a 28 43 1
a 43 28 1
a 28 29 4
a 29 28 4
a 29 44 1
a 44 29 1
a 29 30 4
a 30 29 4
a 30 45 7
a 45 30 7
a 31 46 5
a 46 31 5
a 31 32 7
a 32 31 7
a 32 47 10
a 47 32 10
a 32 33 9
a 33 32 9
a 33 48 9
a 48 33 9
a 33 34 7
a 34 33 7
a 34 49 9
a 49 34 9
a 34 35 5
a 35 34 5
a 35 50 2
a 50 35 2
a 35 36 10
a 36 35 10
a 36 51 3
a 51 36 3
a 36 37 8
a 37 36 8
a 37 52 1
a 52 37 1
a 37 38 7
a 38 37 7
a 38 53 5
a 53 38 5
a 38 39 1
a 39 38 1
a 39 54 7
a 54 39 7
a 39 40 6
a 40 39 6
a 40 55 1
a 55 40 1
a 40 41 9
a 41 40 9
a 41 56 6
a 56 41 6
a 41 42 8
a 42 41 8
a 42 57 1
a 57 42 1
a 42 43 2
a 43 42 2
a 43 58 6
a 58 43 6
a 43 44 8
a 44 43 8
a 44 59 7
a 59 44 7
a 44 45 3
a 45 44 3
a 45 60 1
a 60 45 1
a 46 61 10
a 61 46 10
a 46 47 4
a 47 46 4
a 47 62 1
a 62 47 1
a 47 48 3
a 48 47 3
a 48 63 9
a 63 48 9
a 48 49 9
a 49 48 9
a 49 64 2
a 64 49 2
a 49 50 5
a 50 49 5
a 50 65 8
a 65 50 8
a 50 51 3
a 51 50 3
a 51 66 8
a 66 51 8
a 51 52 1
a 52 51 1
a 52 67 3
a 67 52 3
a 52 53 8
a 53 52 8
a 53 68 2
a 68 53 2
a 53 54 1
a 54 53 1
a 54 69 10
a 69 54 10
a 54 55 6
a 55 54 6
a 55 70 2
a 70 55 2
a 55 56 10
a 56 55 10
a 56 71 5
a 71 56 5
a 56 57 9
a 57 56 9
a 57 72 5
a 72 57 5
a 57 58 3
a 58 57 3
a 58 73 3
a 73 58 3
a 58 59 5
a 59 58 5
a 59 74 6
a 74 59 6
a 59 60 5
a 60 59 5
a 60 75 9
a 75 60 9
a 61 76 7
a 76 61 7
a 61 62 1
a 62 61 1
a 62 77 3
a 77 62 3
a 62 63 1
a 63 62 1
a 63 78 8
a 78 63 8
a 63 64 5
a 64 63 5
a 64 79 10
a 79 64 10
a 64 65 2
a 65 64 2
a 65 80 9
a 80 65 9
a 65 66 7
a 66 65 7
a 66 81 5
a 81 66 5
a 66 67 4
a 67 66 4
a 67 82 9
a 82 67 9
a 67 68 3
a 68 67 3
a 68 83 5
a 83 68 5
a 68 69 7
a 69 68 7
a 69 84 4
a 84 69 4
a 69 70 4
a 70 69 4
a 70 85 8
a 85 70 8
a 70 71 6
a 71 70 6
a 71 86 8
a 86 71 8
a 71 72 9
a 72 71 9
a 72 87 10
a 87 72 10
a 72 73 9
a 73 72 9
a 73 88 2
a 88 73 2
a 73 74 7
a 74 73 7
a 74 89 3
a 89 74 3
a 74 75 7
a 75 74 7
a 75 90 4
a 90 75 4
a 76 91 9
a 91 76 9
a 76 77 10
a 77 76 10
a 77 92 7
a 92 77 7
a 77 78 2
a 78 77 2
a 78 93 5
a 93 78 5
a 78 79 6
a 79 78 6
a 79 94 9
a 94 79 9
a 79 80 5
a 80 79 5
a 80 95 6
a 95 80 6
a 80 81 3
a 81 80 3
a 81 96 4
a 96 81 4
a 81 82 7
a 82 81 7
a 82 97 8
a 97 82 8
a 82 83 5
a 83 82 5
a 83 98 5
a 98 83 5
a 83 84 4
a 84 83 4
a 84 99 9
a 99 84 9
a 84 85 10
a 85 84 10
a 85 100 2
a 100 85 2
a 85 86 4
a 86 85 4
a 86 101 3
a 101 86 3
a 86 87 2
a 87 86 2
a 87 102 5
a 102 87 5
a 87 88 9
a 88 87 9
a 88 103 3
a 103 88 3
a 88 89 7
a 89 88 7
a 89 104 2
a 104 89 2
a 89 90 3
a 90 89 3
a 90 105 2
a 105 90 2
a 91 106 2
a 106 91 2
a 91 92 8
a 92 91 8
a 92 107 7
a 107 92 7
a 92 93 3
a 93 92 3
a 93 108 9
a 108 93 9
a 93 94 4
a 94 93 4
a 94 109 1
a 109 94 1
a 94 95 8
a 95 94 8
a 95 110 6
a 110 95 6
a 95 96 1
a 96 95 1
a 96 111 7
a 111 96 7
a 96 97 3
a 97 96 3
a 97 112 7
a 112 97 7
a 97 98 8
a 98 97 8
a 98 113 2
a 113 98 2
a 98 99 7
a 99 98 7
a 99 114 8
a 114 99 8
a 99 100 4
a 100 99 4
a 100 115 7
a 115 100 7
a 100 101 5
a 101 100 5
a 101 116 5
a 116 101 5
a 101 102 3
a 102 101 3
a 102 117 1
a 117 102 1
a 102 103 10
a 103 102 10
a 103 118 1
a 118 103 1
a 103 104 1
a 104 103 1
a 104 119 2
a 119 104 2
a 104 105 3
a 105 104 3
a 105 120 10
a 120 105 10
a 106 121 9
a 121 106 9
a 106 107 3
a 107 106 3
a 107 122 8
a 122 107 8
a 107 108 10
a 108 107 10
a 108 123 7
a 123 108 7
a 108 109 10
a 109 108 10
a 109 124 7
a 124 109 7
a 109 110 10
a 110 109 10
a 110 125 8
a 125 110 8
a 110 111 1
a 111 110 1
a 111 126 6
a 126 111 6
a 111 112 4
a 112 111 4
a 112 127 6
a 127 112 6
a 112 113 8
a 113 112 8
a 113 128 7
a 128 113 7
a 113 114 6
a 114 113 6
a 114 129 7
a 129 114 7
a 114 115 3
a 115 114 3
a 115 130 9
a 130 115 9
a 115 116 1
a 116 115 1
a 116 131 6
a 131 116 6
a 116 117 10
a 117 116 10
a 117 132 4
a 132 117 4
a 117 118 2
a 118 117 2
a 118 133 1
a 133 118 1
a 118 119 6
a 119 118 6
a 119 134 5
a 134 119 5
a 119 120 1
a 120 119 1
a 120 135 8
a 135 120 8
a 121 136 5
a 136 121 5
a 121 122 9
a 122 121 9
a 122 137 4
a 137 122 4
a 122 123 10
a 123 122 10
a 123 138 4
a 138 123 4
a 123 124 4
a 124 123 4
a 124 139 1
a 139 124 1
a 124 125 8
a 125 124 8
a 125 140 2
a 140 125 2
a 125 126 1
a 126 125 1
a 126 141 9
a 141 126 9
a 126 127 3
a 127 126 3
a 127 142 9
a 142 127 9
a 127 128 4
a 128 127 4
a 128 143 2
a 143 128 2
a 128 129 10
a 129 128 10
a 129 144 5
a 144 129 5
a 129 130 7
a 130 129 7
a 130 145 2
a 145 130 2
a 130 131 10
a 131 130 10
a 131 146 4
a 146 131 4
a 131 132 1
a 132 131 1
a 132 147 2
a 147 132 2
a 132 133 3
a 133 132 3
a 133 148 10
a 148 133 10
a 133 134 5
a 134 133 5
a 134 149 7
a 149 134 7
a 134 135 10
a 135 134 10
a 135 150 7
a 150 135 7
a 136 151 1
a 151 136 1
a 136 137 9
a 137 136 9
a 137 152 5
a 152 137 5
a 137 138 8
a 138 137 8
a 138 153 6
a 153 138 6
a 138 139 5
a 139 138 5
a 139 154 7
a 154 139 7
a 139 140 8
a 140 139 8
a 140 155 9
a 155 140 9
a 140 141 6
a 141 140 6
a 141 156 4
a 156 141 4
a 141 142 2
a 142 141 2
a 142 157 3
a 157 142 3
a 142 143 2
a 143 142 2
a 143 158 1
a 158 143 1
a 143 144 6
a 144 143 6
a 144 159 9
a 159 144 9
a 144 145 5
a 145 144 5
a 145 160 8
a 160 145 8
a 145 146 10
a 146 145 10
a 146 161 2
a 161 146 2
a 146 147 3
a 147 146 3
a 147 162 3
a 162 147 3
a 147 148 8
a 148 147 8
a 148 163 2
a 163 148 2
a 148 149 4
a 149 148 4
a 149 164 7
a 164 149 7
a 149 150 4
a 150 149 4
a 150 165 7
a 165 150 7
a 151 166 7
a 166 151 7
a 151 152 8
a 152 151 8
a 152 167 6
a 167 152 6
a 152 153 8
a 153 152 8
a 153 168 7
a 168 153 7
a 153 154 4
a 154 153 4
a 154 169 1
a 169 154 1
a 154 155 4
a 155 154 4
a 155 170 9
a 170 155 9
a 155 156 10
a 156 155 10
a 156 171 10
a 171 156 10
a 156 157 6
a 157 156 6
a 157 172 6
a 172 157 6
a 157 158 3
a 158 157 3
a 158 173 1
a 173 158 1
a 158 159 10
a 159 158 10
a 159 174 1
a 174 159 1
a 159 160 9
a 160 159 9
a 160 175 9
a 175 160 9
a 160 161 7
a 161 160 7
a 161 176 5
a 176 161 5
a 161 162 4
a 162 161 4
a 162 177 10
a 177 162 10
a 162 163 9
a 163 162 9
a 163 178 5
a 178 163 5
a 163 164 4
a 164 163 4
a 164 179 7
a 179 164 7
a 164 165 7
a 165 164 7
a 165 180 8
a 180 165 8
a 166 181 6
a 181 166 6
a 166 167 10
a 167 166 10
a 167 182 8
a 182 167 8
a 167 168 6
a 168 167 6
a 168 183 6
a 183 168 6
a 168 169 2
a 169 168 2
a 169 184 7
a 184 169 7
a 169 170 10
a 170 169 10
a 170 185 2
a 185 170 2
a 170 171 7
a 171 170 7
a 171 186 8
a 186 171 8
a 171 172 3
a 172 171 3
a 172 187 2
a 187 172 2
a 172 173 10
a 173 172 10
a 173 188 2
a 188 173 2
a 173 174 8
a 174 173 8
a 174 189 4
a 189 174 4
a 174 175 4
a 175 174 4
a 175 190 5
a 190 175 5
a 175 176 3
a 176 175 3
a 176 191 7
a 191 176 7
a 176 177 2
a 177 176 2
a 177 192 3
a 192 177 3
a 177 178 9
a 178 177 9
a 178 193 4
a 193 178 4
a 178 179 10
a 179 178 10
a 179 194 5
a 194 179 5
a 179 180 1
a 180 179 1
a 180 195 5
a 195 180 5
a 181 196 7
a 196 181 7
a 181 182 9
a 182 181 9
a 182 197 3
a 197 182 3
a 182 183 4
a 183 182 4
a 183 198 1
a 198 183 1
a 183 184 2
a 184 183 2
a 184 199 8
a 199 184 8
a 184 185 3
a 185 184 3
a 185 200 4
a 200 185 4
a 185 186 10
a 186 185 10
a 186 201 9
a 201 186 9
a 186 187 10
a 187 186 10
a 187 202 7
a 202 187 7
a 187 188 4
a 188 187 4
a 188 203 2
a 203 188 2
a 188 189 2
a 189 188 2
a 189 204 6
a 204 189 6
a 189 190 1
a 190 189 1
a 190 205 8
a 205 190 8
a 190 191 8
a 191 190 8
a 191 206 8
a 206 191 8
a 191 192 4
a 192 191 4
a 192 207 5
a 207 192 5
a 192 193 8
a 193 192 8
a 193 208 2
a 208 193 2
a 193 194 1
a 194 193 1
a 194 209 6
a 209 194 6
a 194 195 5
a 195 194 5
a 195 210 3
a 210 195 3
a 196 211 4
a 211 196 4
a 196 197 8
a 197 196 8
a 197 212 9
a 212 197 9
a 197 198 5
a 198 197 5
a 198 213 7
a 213 198 7
a 198 199 9
a 199 198 9
a 199 214 5
a 214 199 5
a 199 200 5
a 200 199 5
a 200 215 1
a 215 200 1
a 200 201 3
a 201 200 3
a 201 216 9
a 216 201 9
a 201 202 8
a 202 201 8
a 202 217 6
a 217 202 6
a 202 203 10
a 203 202 10
a 203 218 10
a 218 203 10
a 203 204 1
a 204 203 1
a 204 219 3
a 219 204 3
a 204 205 9
a 205 204 9
a 205 220 1
a 220 205 1
a 205 206 5
a 206 205 5
a 206 221 1
a 221 206 1
a 206 207 6
a 207 206 6
a 207 222 10
a 222 207 10
a 207 208 9
a 208 207 9
a 208 223 7
a 223 208 7
a 208 209 9
a 209 208 9
a 209 224 3
a 224 209 3
a 209 210 3
a 210 209 3
a 210 225 6
a 225 210 6
a 211 212 9
a 212 211 9
a 212 213 1
a 213 212 1
a 213 214 2
a 214 213 2
a 214 215 8
a 215 214 8
a 215 216 7
a 216 215 7
a 216 217 1
a 217 216 1
a 217 218 5
a 218 217 5
a 218 219 3
a 219 218 3
a 219 220 10
a 220 219 10
a 220 221 9
a 221 220 9
a 221 222 1
a 222 221 1
a 222 223 7
a 223 222 7
a 223 224 4
a 224 223 4
a 224 225 5
a 225 224 5
